4 
5  26 53 
6  09 29 44 56 
7  04 11 19 26 34 41 49 56 
8  04 11 19 26 34 41 49 56 
9  04 11 19 29 38 46 53 
10  01 08 16 23 31 38 46 53 
11  01 08 16 23 31 38 46 53 
12  01 08 16 23 31 38 46 53 
13  01 08 16 24 32 40 47 55 
14  02 10 17 25 32 40 47 55 
15  04 12 19 27 34 42 49 57 
16  04 12 19 27 34 42 49 57 
17  04 12 19 27 34 42 49 57 
18  04 12 19 27 34 42 49 57 
19  04 12 19 27 34 42 49 57 
20  05 12 19 27 34 42 49 57 
21  04 12 19 27 34 49 
22  04 19 34 50 
23  05 20 33 48 
0 
